
n_res = 4;
rcap = [18, 19, 589, 582];
rtype = [1, 1, 2, 2];
n_tasks = 100;
modes =  [{1, 2, 3}, {4, 5, 6}, {7, 8, 9}, {10, 11, 12}, {13, 14, 15}, {16, 17, 18}, {19, 20, 21}, {22, 23, 24}, {25, 26, 27}, {28, 29, 30}, {31, 32, 33}, {34, 35, 36}, {37, 38, 39}, {40, 41, 42}, {43, 44, 45}, {46, 47, 48}, {49, 50, 51}, {52, 53, 54}, {55, 56, 57}, {58, 59, 60}, {61, 62, 63}, {64, 65, 66}, {67, 68, 69}, {70, 71, 72}, {73, 74, 75}, {76, 77, 78}, {79, 80, 81}, {82, 83, 84}, {85, 86, 87}, {88, 89, 90}, {91, 92, 93}, {94, 95, 96}, {97, 98, 99}, {100, 101, 102}, {103, 104, 105}, {106, 107, 108}, {109, 110, 111}, {112, 113, 114}, {115, 116, 117}, {118, 119, 120}, {121, 122, 123}, {124, 125, 126}, {127, 128, 129}, {130, 131, 132}, {133, 134, 135}, {136, 137, 138}, {139, 140, 141}, {142, 143, 144}, {145, 146, 147}, {148, 149, 150}, {151, 152, 153}, {154, 155, 156}, {157, 158, 159}, {160, 161, 162}, {163, 164, 165}, {166, 167, 168}, {169, 170, 171}, {172, 173, 174}, {175, 176, 177}, {178, 179, 180}, {181, 182, 183}, {184, 185, 186}, {187, 188, 189}, {190, 191, 192}, {193, 194, 195}, {196, 197, 198}, {199, 200, 201}, {202, 203, 204}, {205, 206, 207}, {208, 209, 210}, {211, 212, 213}, {214, 215, 216}, {217, 218, 219}, {220, 221, 222}, {223, 224, 225}, {226, 227, 228}, {229, 230, 231}, {232, 233, 234}, {235, 236, 237}, {238, 239, 240}, {241, 242, 243}, {244, 245, 246}, {247, 248, 249}, {250, 251, 252}, {253, 254, 255}, {256, 257, 258}, {259, 260, 261}, {262, 263, 264}, {265, 266, 267}, {268, 269, 270}, {271, 272, 273}, {274, 275, 276}, {277, 278, 279}, {280, 281, 282}, {283, 284, 285}, {286, 287, 288}, {289, 290, 291}, {292, 293, 294}, {295, 296, 297}, {298, 299, 300}];
succ =  [{51, 47, 35, 34, 28, 27, 26, 23, 9}, {46, 38, 37, 36, 32, 31, 28, 21, 20}, {49, 44, 41, 40, 37, 33, 32, 31, 27, 25, 23, 20}, {51, 47, 44, 43, 41, 40, 39, 35, 34, 31, 29, 27, 26}, {47, 41, 39, 38, 37, 34, 27, 15}, {48, 39, 37, 28, 27, 17, 15}, {41, 39, 34, 32, 27, 23, 15}, {71, 53, 48, 46, 44, 40, 39, 38, 37, 36, 32, 28}, {58, 56, 49, 48, 46, 45, 44, 43, 42, 40, 39, 38, 37, 36, 33, 31}, {57, 56, 51, 49, 48, 47, 43, 40, 38, 36, 32, 31, 27}, {53, 49, 47, 44, 40, 35, 20}, {71, 59, 52, 51, 42, 40, 38, 29, 28}, {74, 71, 67, 54, 53, 50, 48, 46, 43, 41, 40, 32}, {74, 56, 53, 52, 51, 48, 47, 40, 38, 37, 25}, {71, 57, 56, 54, 53, 52, 51, 49, 46, 45, 43, 42, 40, 36}, {73, 50, 49, 47, 46, 41, 39, 23}, {74, 72, 71, 59, 57, 56, 54, 53, 52, 51, 46, 42, 40, 38}, {59, 57, 56, 45, 44, 43, 42, 40, 31}, {74, 72, 66, 65, 64, 59, 57, 55, 54, 51, 47, 46, 44, 38}, {83, 74, 55, 54, 52, 51, 50, 48, 45, 43, 42, 39}, {74, 67, 64, 57, 52, 51, 50, 47, 43, 34}, {73, 72, 71, 68, 67, 66, 54, 44, 42, 39}, {100, 83, 74, 72, 71, 70, 67, 65, 64, 63, 60, 59, 58, 55, 54, 52, 48}, {100, 77, 74, 73, 72, 70, 67, 65, 64, 61, 60, 58, 57, 55, 48, 44}, {100, 83, 80, 73, 72, 71, 68, 67, 66, 63, 62, 59, 57, 55, 54, 42}, {84, 77, 74, 71, 70, 68, 66, 63, 61, 60, 57, 53, 52, 49}, {74, 68, 66, 63, 58, 55, 53, 52, 42}, {74, 67, 54, 49, 43, 41}, {83, 80, 76, 74, 67, 64, 63, 61, 60, 58, 55, 45}, {83, 80, 71, 68, 67, 64, 63, 61, 59, 57, 55, 45}, {77, 74, 71, 68, 64, 54, 53, 52, 50}, {63, 59, 58, 52, 45, 42}, {83, 77, 74, 73, 67, 66, 64, 60, 55, 54, 52}, {100, 77, 71, 70, 65, 63, 61, 58, 56, 48}, {83, 77, 73, 70, 68, 67, 66, 64, 63, 61, 60, 52}, {100, 83, 74, 64, 62, 60, 59, 55, 50}, {100, 98, 96, 84, 82, 80, 76, 70, 69, 67, 64, 63, 61}, {100, 83, 73, 67, 62, 60, 50}, {100, 97, 82, 81, 80, 79, 76, 62, 60, 59, 57}, {96, 94, 81, 77, 73, 66, 64, 63, 61, 55}, {99, 97, 92, 81, 77, 76, 70, 61, 57, 56}, {96, 77, 76, 70, 69, 65, 64, 61, 60}, {100, 77, 73, 70, 69, 68, 62, 61, 60}, {95, 94, 84, 83, 81, 75, 63, 52}, {99, 98, 96, 95, 94, 82, 81, 79, 77, 75, 73, 72, 69, 62}, {99, 96, 95, 87, 82, 81, 76, 75, 70, 69, 63, 62}, {100, 98, 95, 94, 93, 83, 80, 77, 71, 69, 58}, {99, 96, 94, 82, 81, 79, 76, 69, 68, 66, 62}, {100, 99, 98, 96, 94, 82, 79, 75, 64, 62}, {99, 98, 97, 96, 87, 81, 76, 75, 70, 63}, {98, 97, 96, 95, 94, 92, 82, 78, 76, 75, 68}, {96, 93, 87, 82, 80, 76, 69, 62}, {99, 98, 96, 94, 83, 81, 73, 62}, {98, 97, 94, 92, 90, 89, 61}, {99, 98, 92, 91, 90, 89, 87, 84, 82, 78, 75}, {98, 96, 94, 89, 87, 83, 80, 78}, {95, 94, 91, 90, 89, 88, 87, 78}, {96, 92, 91, 89, 87, 81, 79, 78}, {96, 91, 90, 89, 88, 78, 77}, {99, 98, 95, 94, 78, 75}, {95, 87, 79, 78, 75}, {92, 90, 89, 88, 78}, {92, 90, 89, 79, 78}, {97, 95, 91, 87, 78}, {92, 89, 88, 81, 78}, {95, 90, 88, 87, 86, 85}, {89, 88, 87, 86, 81}, {93, 91, 87, 86, 85}, {97, 90, 78}, {94, 91, 90, 85}, {92, 88, 86, 85}, {92, 91, 86, 85}, {87, 78}, {87, 78}, {93, 88, 86}, {89, 86, 85}, {87, 86, 85}, {86, 85}, {86, 85}, {91, 90}, {85}, {85}, {86}, {85}, {}, {}, {}, {}, {}, {}, {}, {}, {}, {}, {}, {}, {}, {}, {}, {}];
n_opt = 300;
dur = [1, 3, 6, 1, 2, 10, 3, 7, 10, 3, 5, 8, 3, 4, 8, 7, 9, 10, 2, 4, 5, 5, 6, 7, 1, 5, 8, 5, 9, 10, 1, 3, 7, 2, 3, 9, 1, 4, 5, 3, 6, 7, 2, 9, 10, 4, 7, 8, 4, 7, 10, 3, 4, 7, 1, 3, 8, 5, 9, 10, 1, 3, 7, 6, 8, 9, 1, 5, 9, 3, 5, 10, 2, 7, 10, 1, 8, 9, 3, 5, 8, 3, 4, 7, 2, 3, 7, 4, 5, 10, 2, 7, 9, 5, 7, 10, 1, 8, 10, 2, 5, 6, 2, 3, 10, 4, 6, 10, 5, 6, 9, 6, 8, 10, 3, 5, 8, 2, 4, 5, 3, 9, 10, 4, 9, 10, 4, 8, 9, 1, 3, 4, 2, 5, 6, 4, 8, 9, 1, 4, 6, 5, 8, 9, 4, 8, 9, 1, 3, 7, 1, 3, 7, 4, 9, 10, 2, 3, 9, 1, 4, 8, 5, 6, 7, 7, 8, 10, 1, 7, 9, 4, 5, 10, 5, 7, 10, 1, 6, 7, 2, 4, 10, 2, 5, 7, 3, 9, 10, 5, 9, 10, 6, 8, 9, 7, 8, 10, 4, 6, 9, 2, 7, 8, 3, 4, 8, 2, 5, 7, 2, 7, 8, 6, 8, 9, 1, 7, 8, 2, 3, 4, 4, 7, 9, 4, 5, 7, 7, 8, 9, 3, 4, 5, 4, 5, 6, 5, 8, 9, 2, 5, 10, 4, 5, 9, 1, 2, 9, 5, 7, 8, 3, 8, 10, 1, 5, 7, 1, 6, 8, 1, 2, 9, 5, 6, 7, 2, 6, 9, 3, 8, 9, 1, 8, 10, 7, 8, 9, 2, 5, 7, 3, 6, 7, 5, 6, 9, 3, 7, 8, 1, 7, 10, 4, 9, 10, 4, 7, 10];
rreq = [|3, 3, 3, 3, 3, 2, 3, 3, 3, 4, 4, 4, 1, 1, 1, 3, 2, 2, 3, 3, 3, 3, 3, 3, 4, 4, 4, 2, 1, 1, 3, 2, 2, 4, 3, 2, 4, 3, 2, 3, 2, 2, 5, 4, 4, 3, 3, 3, 1, 1, 1, 3, 3, 1, 3, 2, 2, 3, 2, 1, 4, 4, 3, 4, 2, 2, 2, 1, 1, 5, 3, 1, 4, 4, 4, 5, 4, 4, 3, 3, 2, 3, 3, 1, 3, 2, 2, 3, 3, 2, 5, 5, 5, 2, 2, 1, 3, 2, 1, 5, 4, 3, 2, 2, 2, 2, 2, 2, 4, 3, 2, 4, 4, 3, 2, 1, 1, 2, 2, 2, 1, 1, 1, 4, 4, 4, 1, 1, 1, 5, 4, 3, 1, 1, 1, 4, 2, 2, 5, 4, 4, 5, 4, 3, 5, 4, 2, 4, 4, 3, 5, 4, 4, 3, 2, 2, 2, 1, 1, 4, 3, 3, 1, 1, 1, 4, 4, 4, 2, 1, 1, 3, 2, 2, 2, 2, 2, 2, 1, 1, 3, 2, 2, 1, 1, 1, 1, 1, 1, 4, 3, 3, 3, 1, 1, 3, 3, 3, 3, 2, 2, 4, 2, 2, 4, 3, 2, 1, 1, 1, 2, 2, 2, 2, 1, 1, 3, 2, 2, 3, 3, 1, 2, 2, 2, 3, 3, 2, 2, 2, 1, 4, 4, 2, 3, 3, 3, 4, 2, 2, 2, 1, 1, 1, 1, 1, 1, 1, 1, 4, 4, 4, 4, 3, 2, 5, 4, 4, 3, 2, 2, 4, 3, 3, 2, 1, 1, 1, 1, 1, 3, 3, 1, 4, 3, 3, 2, 2, 2, 4, 4, 4, 5, 4, 4, 3, 2, 1, 3, 2, 1, 3, 3, 2, 4, 2, 1, 2, 2, 2
 |5, 5, 5, 3, 2, 2, 4, 3, 3, 3, 1, 1, 5, 3, 3, 1, 1, 1, 4, 3, 3, 2, 2, 2, 3, 2, 1, 3, 2, 1, 4, 4, 4, 3, 2, 2, 3, 2, 1, 3, 2, 2, 4, 2, 2, 1, 1, 1, 3, 2, 2, 4, 3, 1, 5, 4, 3, 5, 4, 4, 2, 2, 2, 2, 2, 1, 5, 3, 3, 3, 2, 2, 4, 3, 2, 3, 3, 2, 2, 2, 2, 3, 2, 1, 1, 1, 1, 5, 4, 3, 4, 3, 2, 4, 4, 4, 3, 2, 1, 2, 1, 1, 3, 3, 2, 2, 1, 1, 4, 3, 3, 4, 3, 3, 5, 4, 3, 2, 2, 1, 5, 3, 2, 5, 5, 5, 4, 2, 2, 2, 1, 1, 3, 2, 2, 3, 3, 2, 5, 4, 4, 4, 2, 2, 5, 2, 2, 4, 3, 3, 2, 2, 2, 1, 1, 1, 1, 1, 1, 4, 3, 2, 2, 1, 1, 4, 2, 2, 4, 4, 3, 3, 3, 1, 5, 3, 2, 4, 3, 1, 3, 3, 2, 4, 4, 3, 3, 2, 2, 2, 1, 1, 1, 1, 1, 4, 3, 2, 3, 3, 3, 4, 3, 2, 4, 4, 4, 4, 4, 3, 3, 2, 2, 3, 3, 2, 3, 3, 1, 4, 4, 2, 2, 2, 2, 3, 3, 2, 3, 2, 2, 3, 3, 3, 3, 2, 1, 4, 3, 3, 4, 4, 4, 4, 3, 3, 4, 3, 3, 2, 2, 2, 4, 2, 1, 4, 2, 2, 4, 3, 1, 4, 4, 2, 3, 3, 3, 4, 3, 3, 4, 2, 1, 5, 4, 3, 4, 3, 3, 2, 1, 1, 2, 2, 2, 4, 2, 2, 3, 1, 1, 4, 4, 4, 5, 3, 3, 4, 4, 4
 |9, 9, 9, 4, 2, 2, 2, 2, 2, 7, 7, 3, 10, 5, 5, 1, 1, 1, 2, 2, 2, 8, 6, 6, 5, 5, 3, 3, 3, 1, 9, 7, 5, 7, 5, 3, 9, 8, 8, 6, 5, 5, 10, 9, 9, 7, 5, 3, 3, 3, 2, 3, 3, 2, 8, 7, 5, 5, 4, 3, 9, 9, 9, 8, 7, 7, 5, 4, 4, 8, 4, 3, 5, 4, 2, 5, 2, 1, 8, 7, 6, 1, 1, 1, 8, 6, 6, 7, 4, 4, 8, 8, 8, 10, 8, 6, 7, 6, 5, 2, 2, 2, 1, 1, 1, 9, 8, 7, 4, 4, 4, 2, 2, 2, 9, 7, 3, 8, 8, 7, 8, 7, 7, 9, 8, 8, 9, 6, 2, 5, 3, 2, 8, 5, 5, 9, 6, 5, 9, 9, 9, 8, 6, 4, 4, 3, 3, 7, 6, 5, 6, 6, 5, 4, 3, 3, 3, 3, 3, 5, 4, 3, 8, 6, 5, 6, 5, 3, 5, 3, 2, 9, 7, 4, 9, 8, 6, 4, 4, 3, 2, 2, 2, 9, 6, 4, 10, 9, 9, 7, 3, 3, 10, 9, 8, 1, 1, 1, 7, 5, 4, 10, 8, 8, 4, 3, 3, 9, 5, 5, 7, 6, 5, 9, 7, 6, 7, 6, 4, 10, 8, 8, 7, 6, 4, 3, 2, 2, 8, 5, 2, 6, 6, 1, 4, 4, 4, 3, 1, 1, 10, 5, 1, 1, 1, 1, 6, 4, 3, 6, 2, 2, 10, 10, 10, 6, 5, 5, 5, 5, 5, 9, 7, 7, 7, 6, 5, 8, 7, 7, 4, 4, 4, 5, 5, 4, 8, 8, 8, 8, 6, 3, 8, 5, 4, 9, 7, 7, 3, 2, 2, 6, 5, 5, 8, 8, 7, 5, 4, 4
 |8, 7, 6, 8, 7, 6, 3, 3, 2, 9, 9, 9, 9, 7, 6, 10, 6, 5, 7, 5, 4, 10, 6, 4, 10, 10, 10, 5, 5, 5, 7, 7, 5, 7, 7, 7, 6, 4, 2, 9, 7, 6, 8, 4, 3, 6, 6, 6, 6, 6, 6, 9, 9, 9, 10, 4, 1, 7, 7, 2, 6, 4, 2, 3, 3, 3, 9, 6, 5, 2, 2, 2, 7, 5, 4, 3, 3, 3, 7, 6, 3, 5, 4, 2, 5, 2, 1, 6, 5, 3, 8, 6, 5, 4, 4, 3, 6, 6, 3, 2, 2, 2, 6, 3, 2, 5, 4, 2, 3, 2, 1, 8, 7, 5, 10, 9, 9, 6, 5, 5, 8, 8, 8, 8, 8, 7, 10, 7, 6, 5, 3, 3, 8, 6, 5, 8, 6, 5, 4, 2, 1, 2, 2, 1, 8, 8, 8, 2, 2, 2, 8, 5, 5, 5, 5, 4, 8, 6, 5, 10, 9, 9, 6, 5, 1, 6, 3, 3, 9, 9, 9, 4, 4, 2, 6, 6, 6, 4, 2, 1, 9, 5, 3, 7, 4, 3, 10, 11, 10, 6, 5, 4, 8, 7, 7, 6, 6, 5, 6, 5, 5, 1, 1, 1, 4, 2, 2, 9, 8, 8, 9, 4, 3, 3, 3, 3, 8, 4, 2, 3, 1, 1, 8, 8, 7, 8, 8, 8, 8, 7, 5, 3, 2, 1, 6, 5, 4, 4, 3, 2, 6, 5, 5, 5, 4, 3, 6, 6, 5, 9, 6, 2, 7, 4, 4, 6, 5, 4, 3, 2, 2, 8, 8, 5, 6, 5, 1, 4, 3, 2, 7, 6, 5, 5, 5, 4, 10, 5, 2, 7, 6, 4, 2, 2, 2, 6, 4, 3, 6, 4, 4, 4, 3, 3, 6, 6, 5, 3, 2, 1|];